(set-option :produce-models true)
(set-logic QF_UF)
(declare-fun p30() Bool)
(declare-fun p27() Bool)
(declare-fun p22() Bool)
(declare-fun p3() Bool)
(declare-fun p33() Bool)
(declare-fun p39() Bool)
(declare-fun p2() Bool)
(declare-fun p4() Bool)
(declare-fun p0() Bool)
(declare-fun p32() Bool)
(declare-fun p7() Bool)
(declare-fun p19() Bool)
(declare-fun p23() Bool)
(declare-fun p28() Bool)
(declare-fun p34() Bool)
(declare-fun p12() Bool)
(declare-fun p10() Bool)
(declare-fun p21() Bool)
(declare-fun p14() Bool)
(declare-fun p5() Bool)
(declare-fun p29() Bool)
(declare-fun p17() Bool)
(declare-fun p38() Bool)
(declare-fun p9() Bool)
(declare-fun p18() Bool)
(declare-fun p1() Bool)
(declare-fun p16() Bool)
(declare-fun p26() Bool)
(declare-fun p31() Bool)
(declare-fun p15() Bool)
(declare-fun p8() Bool)
(declare-fun p36() Bool)
(declare-fun p24() Bool)
(declare-fun p11() Bool)
(declare-fun p35() Bool)
(declare-fun p13() Bool)
(declare-fun p20() Bool)
(declare-fun p25() Bool)
(declare-fun p37() Bool)
(declare-fun p6() Bool)
(assert
(and (or p30 p27 p22) (or p3 (not p33) (not p39)) (or (not p2) (not p4) p0) (or p32 p7 p19) (or (not p23) (not p28) (not p34)) (or p32 p12 p10) (or (not p21) (not p23) p0) (or p14 (not p23) (not p30)) (or (not p28) (not p5) p5) (or p39 p29 p17) (or p17 (not p19) p38) (or (not p9) p5 (not p18)) (or p1 p1 p32) (or (not p29) p16 p1) (or (not p26) p31 (not p9)) (or (not p29) p10 (not p0)) (or (not p34) (not p15) (not p19)) (or p2 p4 (not p28)) (or (not p8) (not p29) (not p39)) (or p1 (not p30) p23) (or (not p36) (not p38) p3) (or p30 p19 p17) (or p4 p24 p11) (or (not p36) (not p27) (not p24)) (or p16 (not p21) p10) (or p28 (not p9) (not p17)) (or (not p18) p22 p35) (or (not p22) p16 p0) (or (not p36) (not p28) p3) (or (not p4) (not p0) p11) (or p35 (not p19) p13) (or (not p11) (not p7) p30) (or (not p32) p20 p25) (or (not p9) (not p32) (not p0)) (or (not p14) (not p36) (not p37)) (or (not p3) p34 (not p29)) (or p26 p23 (not p11)) (or p2 (not p36) p34) (or p27 (not p12) p36) (or p20 p24 (not p12)) (or (not p38) (not p4) p22) (or p37 p16 (not p6)) (or p37 p31 p39) (or p18 p29 (not p32)) (or p22 (not p18) (not p31)) (or (not p15) (not p15) p2) (or (not p19) (not p32) (not p18)) (or (not p37) (not p22) p36) (or (not p9) (not p14) p35) (or (not p24) p1 (not p17)) (or p26 (not p24) (not p8)) (or p0 p3 p7) (or p27 (not p12) p21) (or p35 p2 p27) (or (not p9) (not p14) p0) (or p27 p14 (not p4)) (or p33 (not p24) p10) (or p34 p13 (not p2)) (or p33 (not p38) p22) (or p15 (not p34) (not p8)) (or p23 (not p22) (not p20)) (or (not p23) (not p16) (not p38)) (or p32 (not p23) p36) (or (not p15) p38 p29) (or p0 (not p13) p25) (or (not p23) (not p26) (not p25)) (or p2 (not p5) p5) (or (not p30) (not p32) p3) (or p1 (not p3) (not p0)) (or p32 p0 p5) (or p19 (not p6) p21) (or p11 (not p29) (not p14)) (or p33 p30 (not p16)) (or p27 (not p37) p26) (or (not p28) p21 p22) (or p17 (not p22) (not p35)) (or (not p33) (not p32) p20) (or (not p12) (not p8) (not p30)) (or (not p8) (not p34) p2) (or (not p20) p38 (not p12)) (or p37 p36 p6) (or (not p37) p39 (not p21)) (or p35 p26 p9) (or p31 (not p24) p19) (or p28 (not p2) p39) (or (not p17) (not p25) p23) (or (not p23) p32 (not p23)) (or p1 (not p29) (not p36)) (or (not p1) p12 (not p8)) (or (not p14) (not p10) (not p0)) (or (not p2) (not p39) (not p29)) (or p13 (not p18) p35) (or (not p6) p36 (not p0)) (or (not p4) p24 (not p10)) (or (not p33) (not p10) (not p33)) (or p8 p31 (not p37)) (or (not p10) p3 (not p3)) (or (not p17) p35 (not p30)) (or p34 (not p18) (not p11)) (or (not p14) (not p11) p35) (or p23 (not p6) (not p26)) (or p30 (not p26) (not p9)) (or (not p9) p19 (not p6)) (or (not p38) (not p21) (not p9)) (or (not p2) (not p0) p13) (or (not p11) p24 (not p10)) (or p34 p27 (not p39)) (or p5 (not p4) (not p13)) (or p0 (not p15) p34) (or (not p15) p38 p9) (or p30 (not p8) (not p30)) (or p23 (not p24) p27) (or (not p1) (not p5) p8) (or p19 p2 p27) (or (not p5) (not p30) (not p39)) (or p32 (not p25) (not p14)) (or p19 p29 p13) (or p29 p29 (not p34)) (or (not p32) p2 p37) (or (not p16) (not p4) (not p34)) (or p14 (not p30) p24) (or p2 (not p11) (not p8)) (or p24 p13 p3) (or (not p37) (not p37) p21) (or p7 p24 p11) (or (not p20) (not p20) (not p3)) (or (not p7) (not p23) (not p39)) (or (not p11) p7 p11) (or p35 p33 (not p33)) (or (not p27) p32 p20) (or (not p10) p23 (not p36)) (or (not p23) (not p24) p8) (or (not p2) p19 (not p8)) (or p23 (not p7) p1) (or p1 p5 (not p18)) (or p2 p2 (not p25)) (or p5 p5 p34) (or (not p10) p22 (not p26)) (or (not p11) p5 p38) (or p25 p35 p4) (or p29 (not p36) (not p30)) (or p12 (not p30) (not p7)) (or (not p25) (not p16) p9) (or p1 (not p37) p31) (or (not p9) p28 p30) (or p8 p23 (not p16)) (or (not p6) p0 p22) (or (not p0) p9 p29) (or p4 p32 p12) (or (not p19) p2 p22) (or p25 (not p23) p28) (or p31 (not p38) p10) (or (not p25) p10 (not p30)) (or p36 p13 p6) (or (not p0) (not p28) p37) (or (not p3) p15 (not p32)) (or p28 (not p16) p2) (or (not p30) (not p31) p37) (or p33 (not p20) (not p26)) (or p35 (not p25) p11) (or p6 (not p4) (not p16)) (or (not p33) (not p3) (not p6)) (or p39 p33 (not p19)) (or (not p5) p36 (not p39)) (or (not p12) p39 p27) (or p8 (not p18) p33) (or (not p38) (not p33) p16) (or p2 p8 (not p34)) (or p36 (not p34) (not p28)) (or p5 p18 p21) (or p19 (not p5) p6))
)
(check-sat)
(get-model)
